NAME : XML100_2321_02
DIMENSION : 101
NB_CLUSTERS : 4
CLUSTERING_ALG : KMedoids
CLUSTERING_PARAMS : k(3)
CLUSTERS
1 0
2 7 21 22 23 26 31 35 37 42 48 49 52 59 84 88 92 96 100
3 1 3 13 14 16 20 24 27 28 29 30 33 36 39 43 45 46 50 51 53 57 58 65 66 67 68 71 73 74 76 79 80 81 82 94 95 98
4 2 4 5 6 8 9 10 11 12 15 17 18 19 25 32 34 38 40 41 44 47 54 55 56 60 61 62 63 64 69 70 72 75 77 78 83 85 86 87 89 90 91 93 97 99
EOF